120 150

60
40
55
46
50
57
43
59
46
50
52
46
57
50
52
49
45
43
55
55
40
40
40
43
59
50
51
43
60
44
56
46
41
51
49
50
47
51
53
53
52
51
54
45
51
40
40
53
40
57
55
51
47
59
54
44
52
45
55
50
44
57
50
46
60
44
57
42
51
54
50
51
43
56
46
44
44
43
50
59
59
41
50
52
43
55
41
51
45
51
52
49
49
46
48
56
51
55
44
49
52
49
50
45
60
40
55
50
55
53
53
40
57
42
59
40
51
45
52
53